20 4
0 0 0 1.4
0 25 35 3.8
0 50 130 3.1
0 75 207.5 3.9
1 0 0 1.4
1 25 35 3.8
1 50 130 3.1
1 75 207.5 3.9
2 0 0 1.4
2 25 35 3.8
2 50 130 3.1
2 75 207.5 3.9
3 0 0 1.4
3 25 35 3.8
3 50 130 3.1
3 75 207.5 3.9
4 0 0 1.4
4 25 35 3.8
4 50 130 3.1
4 75 207.5 3.9
5 0 0 1.4
5 25 35 3.8
5 50 130 3.1
5 75 207.5 3.9
6 0 0 1.4
6 25 35 3.8
6 50 130 3.1
6 75 207.5 3.9
7 0 0 1.4
7 25 35 3.8
7 50 130 3.1
7 75 207.5 3.9
8 0 0 1.4
8 25 35 3.8
8 50 130 3.1
8 75 207.5 3.9
9 0 0 1.4
9 25 35 3.8
9 50 130 3.1
9 75 207.5 3.9
10 0 0 1.4
10 25 35 3.8
10 50 130 3.1
10 75 207.5 3.9
11 0 0 1.4
11 25 35 3.8
11 50 130 3.1
11 75 207.5 3.9
12 0 0 1.4
12 25 35 3.8
12 50 130 3.1
12 75 207.5 3.9
13 0 0 1.4
13 25 35 3.8
13 50 130 3.1
13 75 207.5 3.9
14 0 0 1.4
14 25 35 3.8
14 50 130 3.1
14 75 207.5 3.9
15 0 0 1.4
15 25 35 3.8
15 50 130 3.1
15 75 207.5 3.9
16 0 0 1.4
16 25 35 3.8
16 50 130 3.1
16 75 207.5 3.9
17 0 0 1.4
17 25 35 3.8
17 50 130 3.1
17 75 207.5 3.9
18 0 0 1.4
18 25 35 3.8
18 50 130 3.1
18 75 207.5 3.9
19 0 0 1.4
19 25 35 3.8
19 50 130 3.1
19 75 207.5 3.9
